0 56 67 29 82 94 45 87 85 89 58 62 38 64 38 32 91 11 76 60 34 43 18 51 70 79 89 25 36 21 68 59 52 100 68 51 47 64 32 25 75 71 46 81 21 31 84 7 44 40 
56 0 58 54 58 58 58 58 46 58 58 58 58 58 18 58 58 58 58 58 58 58 58 44 58 58 42 84 58 58 58 58 58 58 6 58 28 58 58 58 58 63 58 58 91 58 58 58 58 58 
67 58 0 58 58 58 37 58 58 58 58 58 58 58 58 58 58 27 58 58 58 58 58 58 58 58 58 58 58 74 58 58 58 58 58 58 58 58 58 58 58 58 58 58 58 58 58 75 58 58 
29 54 58 0 58 58 61 58 58 58 42 58 58 58 58 39 58 78 58 58 58 58 30 58 58 58 30 58 58 58 58 58 44 23 58 58 58 58 42 61 58 35 58 53 58 58 58 58 58 58 
82 58 58 58 0 83 58 39 58 58 58 58 58 58 87 58 29 58 58 58 58 58 83 58 58 58 58 58 9 58 58 26 25 58 58 58 58 58 58 83 70 58 25 58 58 58 58 83 58 58 
94 58 58 58 83 0 58 50 61 58 49 58 8 58 58 58 58 59 58 84 48 58 58 58 58 79 58 58 58 58 58 58 58 58 27 58 58 11 58 58 58 71 58 80 58 58 58 15 64 58 
45 58 37 61 58 58 0 58 46 58 58 58 58 58 58 34 58 58 32 58 58 58 58 76 58 58 58 58 81 37 58 45 58 58 58 58 58 58 58 58 58 58 58 58 58 58 58 92 58 58 
87 58 58 58 39 50 58 0 58 58 58 58 58 58 58 58 58 58 85 58 58 58 7 40 58 58 45 29 58 74 24 74 58 58 58 58 58 11 58 39 26 71 58 58 58 85 58 58 22 29 
85 46 58 58 58 61 46 58 0 58 58 58 58 58 46 44 58 53 58 58 58 58 75 58 58 42 58 75 74 58 58 58 58 5 58 58 58 58 58 48 58 58 58 58 58 58 58 58 58 58 
89 58 58 58 58 58 58 58 58 0 58 58 58 58 50 41 58 58 58 58 58 58 75 58 58 58 58 58 58 58 58 58 58 46 58 58 38 58 58 58 58 58 58 58 58 58 58 58 58 58 
58 58 58 42 58 49 58 58 58 58 0 58 58 58 95 57 58 58 59 58 58 58 58 58 58 58 58 58 58 46 58 58 58 58 58 58 58 58 58 58 58 5 58 58 58 58 58 58 58 58 
62 58 58 58 58 58 58 58 58 58 58 0 9 58 58 58 58 58 58 58 58 58 58 58 58 58 58 58 58 84 58 1 58 56 58 73 2 58 58 58 24 58 58 58 58 58 58 58 58 58 
38 58 58 58 58 8 58 58 58 58 58 9 0 58 58 58 85 58 58 84 58 58 58 65 58 58 90 65 58 58 58 58 58 58 58 39 58 93 58 58 58 58 72 58 58 48 58 58 58 58 
64 58 58 58 58 58 58 58 58 58 58 58 58 0 58 58 58 54 58 58 58 58 41 43 58 58 100 13 74 58 58 58 58 46 58 58 58 58 58 58 64 58 58 58 58 5 58 58 58 58 
38 18 58 58 87 58 58 58 46 50 95 58 58 58 0 61 58 58 87 58 58 58 65 58 58 52 58 52 58 50 58 58 92 58 14 58 58 58 74 58 58 50 58 58 52 58 58 58 56 58 
32 58 58 39 58 58 34 58 44 41 57 58 58 58 61 0 58 58 58 58 58 58 93 58 58 58 58 58 58 58 58 58 58 58 98 57 58 1 58 58 58 58 58 30 58 33 58 93 58 74 
91 58 58 58 29 58 58 58 58 58 58 58 85 58 58 58 0 49 58 58 58 58 58 58 58 58 58 58 58 58 58 58 58 58 58 58 58 58 58 58 58 58 58 64 58 58 58 34 58 58 
11 58 27 78 58 59 58 58 53 58 58 58 58 54 58 58 49 0 58 65 58 58 58 58 58 58 58 58 44 58 58 34 74 58 58 8 58 58 58 40 58 58 58 58 58 58 58 58 58 58 
76 58 58 58 58 58 32 85 58 58 59 58 58 58 87 58 58 58 0 27 58 46 46 58 58 58 58 59 34 58 58 58 58 91 58 39 89 58 58 58 58 58 58 80 91 80 58 58 58 58 
60 58 58 58 58 84 58 58 58 58 58 58 84 58 58 58 58 65 27 0 58 58 58 58 58 58 58 60 58 58 42 58 60 58 58 58 58 58 58 58 58 58 58 97 58 58 58 77 58 58 
34 58 58 58 58 48 58 58 58 58 58 58 58 58 58 58 58 58 58 58 0 58 57 58 58 58 75 60 58 58 81 58 58 100 58 11 58 58 58 58 58 58 58 44 58 32 58 58 58 29 
43 58 58 58 58 58 58 58 58 58 58 58 58 58 58 58 58 58 46 58 58 0 58 58 58 58 58 75 58 58 58 58 58 58 58 39 58 58 58 58 58 58 58 91 58 58 58 58 4 58 
18 58 58 30 83 58 58 7 75 75 58 58 58 41 65 93 58 58 46 58 57 58 0 65 58 58 58 66 58 58 58 58 58 58 58 58 58 58 58 81 58 66 58 58 91 65 58 57 85 58 
51 44 58 58 58 58 76 40 58 58 58 58 65 43 58 58 58 58 58 58 58 58 65 0 58 58 70 58 58 58 58 58 58 58 58 85 58 58 58 15 90 58 58 54 58 58 58 58 19 28 
70 58 58 58 58 58 58 58 58 58 58 58 58 58 58 58 58 58 58 58 58 58 58 58 0 58 58 58 58 58 58 58 58 56 58 58 58 59 58 58 58 58 25 58 42 58 58 58 58 58 
79 58 58 58 58 79 58 58 42 58 58 58 58 58 52 58 58 58 58 58 58 58 58 58 58 0 58 58 58 68 58 91 58 58 14 58 58 58 58 58 58 58 58 58 58 58 58 58 58 58 
89 42 58 30 58 58 58 45 58 58 58 58 90 100 58 58 58 58 58 58 75 58 58 70 58 58 0 58 58 58 42 45 58 58 58 58 58 58 58 65 74 23 58 80 58 58 58 84 58 58 
25 84 58 58 58 58 58 29 75 58 58 58 65 13 52 58 58 58 59 60 60 75 66 58 58 58 58 0 58 58 75 31 58 34 58 58 76 76 58 58 58 58 58 58 58 58 29 58 58 58 
36 58 58 58 9 58 81 58 74 58 58 58 58 74 58 58 58 44 34 58 58 58 58 58 58 58 58 58 0 58 57 58 58 58 58 58 80 34 57 58 44 34 58 58 58 58 58 58 58 58 
21 58 74 58 58 58 37 74 58 58 46 84 58 58 50 58 58 58 58 58 58 58 58 58 58 68 58 58 58 0 58 58 58 58 58 21 58 45 83 27 58 58 58 55 44 15 58 58 58 58 
68 58 58 58 58 58 58 24 58 58 58 58 58 58 58 58 58 58 58 42 81 58 58 58 58 58 42 75 57 58 0 58 58 58 57 58 67 58 58 72 30 58 28 58 58 58 58 58 58 58 
59 58 58 58 26 58 45 74 58 58 58 1 58 58 58 58 58 34 58 58 58 58 58 58 58 91 45 31 58 58 58 0 58 58 58 58 58 58 58 58 58 58 58 58 58 58 58 77 58 58 
52 58 58 44 25 58 58 58 58 58 58 58 58 58 92 58 58 74 58 60 58 58 58 58 58 58 58 58 58 58 58 58 0 58 58 58 43 58 58 58 85 58 58 58 58 58 36 58 64 28 
100 58 58 23 58 58 58 58 5 46 58 56 58 46 58 58 58 58 91 58 100 58 58 58 56 58 58 34 58 58 58 58 58 0 58 61 58 58 91 58 46 23 58 55 58 58 58 58 58 58 
68 6 58 58 58 27 58 58 58 58 58 58 58 58 14 98 58 58 58 58 58 58 58 58 58 14 58 58 58 58 57 58 58 58 0 58 58 58 58 58 58 58 58 58 58 58 58 58 4 58 
51 58 58 58 58 58 58 58 58 58 58 73 39 58 58 57 58 8 39 58 11 39 58 85 58 58 58 58 58 21 58 58 58 61 58 0 58 42 58 58 10 58 58 58 58 58 58 21 58 58 
47 28 58 58 58 58 58 58 58 38 58 2 58 58 58 58 58 58 89 58 58 58 58 58 58 58 58 76 80 58 67 58 43 58 58 58 0 58 58 58 58 58 58 65 58 76 58 58 58 50 
64 58 58 58 58 11 58 11 58 58 58 58 93 58 58 1 58 58 58 58 58 58 58 58 59 58 58 76 34 45 58 58 58 58 58 42 58 0 58 58 58 58 58 52 58 39 58 2 47 78 
32 58 58 42 58 58 58 58 58 58 58 58 58 58 74 58 58 58 58 58 58 58 58 58 58 58 58 58 57 83 58 58 58 91 58 58 58 58 0 33 99 21 58 58 58 58 58 83 58 58 
25 58 58 61 83 58 58 39 48 58 58 58 58 58 58 58 58 40 58 58 58 58 81 15 58 58 65 58 58 27 72 58 58 58 58 58 58 58 33 0 18 58 58 58 58 58 24 58 58 24 
75 58 58 58 70 58 58 26 58 58 58 24 58 64 58 58 58 58 58 58 58 58 58 90 58 58 74 58 44 58 30 58 85 46 58 10 58 58 99 18 0 58 28 58 58 80 58 58 28 22 
71 63 58 35 58 71 58 71 58 58 5 58 58 58 50 58 58 58 58 58 58 58 66 58 58 58 23 58 34 58 58 58 58 23 58 58 58 58 21 58 58 0 58 58 58 58 58 58 58 58 
46 58 58 58 25 58 58 58 58 58 58 58 72 58 58 58 58 58 58 58 58 58 58 58 25 58 58 58 58 58 28 58 58 58 58 58 58 58 58 58 28 58 0 58 58 58 58 58 58 98 
81 58 58 53 58 80 58 58 58 58 58 58 58 58 58 30 64 58 80 97 44 91 58 54 58 58 80 58 58 55 58 58 58 55 58 58 65 52 58 58 58 58 58 0 58 58 58 97 71 69 
21 91 58 58 58 58 58 58 58 58 58 58 58 58 52 58 58 58 91 58 58 58 91 58 42 58 58 58 58 44 58 58 58 58 58 58 58 58 58 58 58 58 58 58 0 58 58 92 58 58 
31 58 58 58 58 58 58 85 58 58 58 58 48 5 58 33 58 58 80 58 32 58 65 58 58 58 58 58 58 15 58 58 58 58 58 58 76 39 58 58 80 58 58 58 58 0 58 58 58 58 
84 58 58 58 58 58 58 58 58 58 58 58 58 58 58 58 58 58 58 58 58 58 58 58 58 58 58 29 58 58 58 58 36 58 58 58 58 58 58 24 58 58 58 58 58 58 0 58 58 58 
7 58 75 58 83 15 92 58 58 58 58 58 58 58 58 93 34 58 58 77 58 58 57 58 58 58 84 58 58 58 58 77 58 58 58 21 58 2 83 58 58 58 58 97 92 58 58 0 43 58 
44 58 58 58 58 64 58 22 58 58 58 58 58 58 56 58 58 58 58 58 58 4 85 19 58 58 58 58 58 58 58 58 64 58 4 58 58 47 58 58 28 58 58 71 58 58 58 43 0 58 
40 58 58 58 58 58 58 29 58 58 58 58 58 58 58 74 58 58 58 58 29 58 58 28 58 58 58 58 58 58 58 58 28 58 58 58 50 78 58 24 22 58 98 69 58 58 58 58 58 0 

0 54 34 30 92 7 56 14 60 89 35 39 27 66 63 69 59 35 55 41 67 57 31 50 33 28 87 58 83 100 33 42 49 82 33 50 54 37 69 76 66 70 55 20 80 70 50 3 74 61 
54 0 58 65 58 58 58 58 5 58 58 58 58 58 78 58 58 58 58 58 58 58 58 57 58 58 59 14 58 58 58 58 58 58 25 58 73 58 58 58 58 38 58 58 64 58 58 58 58 58 
34 58 0 58 58 58 81 58 58 58 58 58 58 58 58 58 58 74 58 58 58 58 58 58 58 58 58 58 58 28 58 58 58 58 58 58 58 58 58 58 58 58 58 58 58 58 58 26 58 58 
30 65 58 0 58 58 40 58 58 58 75 58 58 58 58 62 58 48 58 58 58 58 78 58 58 58 78 58 58 58 58 58 31 78 58 58 58 58 75 40 58 74 58 48 58 58 58 58 58 58 
92 58 58 58 0 72 58 62 58 58 58 58 58 58 75 58 72 58 58 58 58 58 72 58 58 58 58 58 92 58 58 75 76 58 58 58 58 58 58 72 100 58 76 58 58 58 58 72 58 58 
7 58 58 58 72 0 58 51 40 58 52 58 92 58 58 58 58 89 58 52 41 58 58 58 58 22 58 58 58 58 58 58 58 58 21 58 58 12 58 58 58 62 58 21 58 58 58 59 37 58 
56 58 81 40 58 58 0 58 55 58 58 58 58 58 58 74 58 58 42 58 58 58 58 25 58 58 58 58 20 64 58 27 58 58 58 58 58 58 58 58 58 58 58 58 58 58 58 9 58 58 
14 58 58 58 62 51 58 0 58 58 58 58 58 58 58 58 58 58 16 58 58 58 13 12 58 58 27 10 58 28 77 28 58 58 58 58 58 12 58 62 63 62 58 58 58 16 58 58 26 72 
60 5 58 58 58 40 55 58 0 58 58 58 58 58 55 72 58 87 58 58 58 58 26 58 58 59 58 26 56 58 58 58 58 100 58 58 58 58 58 51 58 58 58 58 58 58 58 58 58 58 
89 58 58 58 58 58 58 58 58 0 58 58 58 58 51 60 58 58 58 58 58 58 26 58 58 58 58 58 58 58 58 58 58 55 58 58 63 58 58 58 58 58 58 58 58 58 58 58 58 58 
35 58 58 75 58 52 58 58 58 58 0 58 58 58 5 44 58 58 42 58 58 58 58 58 58 58 58 58 58 55 58 58 58 58 58 58 58 58 58 58 58 65 58 58 58 58 58 58 58 58 
39 58 58 58 58 58 58 58 58 58 58 0 92 58 58 58 58 58 58 58 58 58 58 58 58 58 58 58 58 42 58 100 58 45 58 28 98 58 58 58 77 58 58 58 58 58 58 58 58 58 
27 58 58 58 58 92 58 58 58 58 58 92 0 58 58 58 93 58 58 52 58 58 58 86 58 58 22 36 58 58 58 58 58 58 58 91 58 8 58 58 58 58 29 58 58 53 58 58 58 58 
66 58 58 58 58 58 58 58 58 58 58 58 58 0 58 58 58 1 58 58 58 58 60 58 58 58 1 26 56 58 58 58 58 40 58 58 58 58 58 58 52 58 58 58 58 54 58 58 58 58 
63 78 58 58 75 58 58 58 55 51 5 58 58 58 0 89 58 58 75 58 58 58 86 58 58 49 58 49 43 51 58 58 9 58 52 58 58 58 96 58 58 51 58 58 49 58 58 58 52 58 
69 58 58 62 58 58 74 58 72 60 44 58 58 58 89 0 58 58 58 58 58 58 8 58 58 58 58 58 58 58 58 58 31 58 3 44 58 100 58 58 58 58 58 71 58 81 58 8 58 79 
59 58 58 58 72 58 58 58 58 58 58 58 93 58 58 58 0 53 58 58 58 58 58 58 58 58 58 58 58 58 58 58 58 58 58 58 58 58 58 58 58 58 58 37 58 58 58 67 58 58 
35 58 74 48 58 89 58 58 87 58 58 58 58 1 58 58 53 0 58 36 58 58 58 58 58 58 58 58 39 58 58 72 90 58 58 55 58 58 58 61 58 58 58 58 58 58 58 58 58 58 
55 58 58 58 58 58 42 16 58 58 42 58 58 58 75 58 58 58 0 74 58 55 55 58 58 58 58 42 67 58 58 58 58 64 58 91 64 58 58 58 58 58 58 21 64 21 58 58 58 58 
41 58 58 58 58 52 58 58 58 58 58 58 52 58 58 58 58 36 74 0 58 58 58 58 58 58 58 41 58 58 59 58 41 58 58 58 58 58 58 58 58 58 58 93 58 58 58 24 58 58 
67 58 58 58 58 41 58 58 58 58 58 58 58 58 58 58 58 58 58 58 0 58 44 58 58 58 26 41 58 58 20 58 58 1 58 28 58 58 58 58 58 58 58 89 58 69 58 58 58 72 
57 58 58 58 58 58 58 58 58 58 58 58 58 58 58 58 58 58 55 58 58 0 58 58 58 58 58 26 58 58 58 58 58 58 58 91 58 58 58 58 58 58 58 74 58 58 58 58 67 58 
31 58 58 78 72 58 58 13 26 26 58 58 58 60 86 8 58 58 55 58 44 58 0 86 58 58 58 35 58 58 58 58 58 58 58 58 58 58 58 20 58 35 58 58 64 8 58 44 1 58 
50 57 58 58 58 58 25 12 58 58 58 58 86 58 58 58 58 58 58 58 58 58 86 0 58 58 31 43 58 58 58 58 58 58 58 16 58 58 58 5 11 58 58 62 58 58 58 58 31 73 
33 58 58 58 58 58 58 58 58 58 58 58 58 58 58 58 58 58 58 58 58 58 58 58 0 58 58 58 58 58 58 58 58 45 58 58 58 42 58 58 58 58 76 58 59 58 58 58 58 58 
28 58 58 58 58 22 58 58 59 58 58 58 58 58 49 58 58 58 58 58 58 58 58 58 58 0 58 58 58 33 58 10 58 58 52 58 58 58 58 58 58 58 58 58 58 58 58 58 58 58 
87 59 58 78 58 58 58 27 58 58 58 58 22 1 58 58 58 58 58 58 26 58 58 31 58 58 0 58 58 58 59 27 58 58 58 58 58 58 58 36 27 78 58 21 58 58 58 17 58 58 
58 14 58 58 58 58 58 10 26 58 58 58 36 26 49 58 58 58 42 41 41 26 35 43 58 58 58 0 58 58 26 70 58 20 58 58 88 88 58 58 58 58 58 58 58 58 88 58 58 58 
83 58 58 58 92 58 20 58 56 58 58 58 58 56 43 58 58 39 67 58 58 58 58 58 58 58 58 58 0 58 44 58 58 58 58 58 21 67 44 58 57 67 58 58 58 58 58 58 58 58 
100 58 28 58 58 58 64 28 58 58 55 42 58 58 51 58 58 58 58 58 58 58 58 58 58 33 58 58 58 0 58 58 58 58 58 31 58 56 72 5 58 58 58 46 57 19 58 58 58 58 
33 58 58 58 58 58 58 77 58 58 58 58 58 58 58 58 58 58 58 59 20 58 58 58 58 58 59 26 44 58 0 58 58 58 44 58 34 58 58 29 71 58 96 58 58 58 58 58 58 58 
42 58 58 58 75 58 27 28 58 58 58 100 58 58 58 58 58 72 58 58 58 58 58 58 58 10 27 70 58 58 58 0 58 58 58 58 58 58 58 58 58 58 58 58 58 58 58 24 58 58 
49 58 58 31 76 58 58 58 58 58 58 58 58 58 9 31 58 90 58 41 58 58 58 58 58 58 58 58 58 58 58 58 0 58 58 58 58 58 58 58 16 58 58 58 58 58 65 58 19 18 
82 58 58 78 58 58 58 58 100 55 58 45 58 40 58 58 58 58 64 58 1 58 58 58 45 58 58 20 58 58 58 58 58 0 58 40 58 58 10 58 55 78 58 46 58 58 58 58 58 58 
33 25 58 58 58 21 58 58 58 58 58 58 58 58 52 3 58 58 58 58 58 58 58 58 58 52 58 58 58 58 44 58 58 58 0 58 58 58 58 58 58 58 58 58 58 58 58 58 67 58 
50 58 58 58 58 58 58 58 58 58 58 28 91 58 58 44 58 55 91 58 28 91 58 16 58 58 58 58 58 31 58 58 58 40 58 0 58 59 58 58 10 58 58 58 58 58 58 31 58 58 
54 73 58 58 58 58 58 58 58 63 58 98 58 58 58 58 58 58 64 58 58 58 58 58 58 58 58 88 21 58 34 58 58 58 58 58 0 58 58 58 58 58 58 36 58 88 58 58 58 51 
37 58 58 58 58 12 58 12 58 58 58 58 8 58 58 100 58 58 58 58 58 58 58 58 42 58 58 88 67 56 58 58 58 58 58 59 58 0 58 58 58 58 58 49 58 62 58 62 54 23 
69 58 58 75 58 58 58 58 58 58 58 58 58 58 96 58 58 58 58 58 58 58 58 58 58 58 58 58 44 72 58 58 58 10 58 58 58 58 0 98 43 80 58 58 58 58 58 72 58 58 
76 58 58 40 72 58 58 62 51 58 58 58 58 58 58 58 58 61 58 58 58 58 20 5 58 58 36 58 58 5 29 58 58 58 58 58 58 58 98 0 48 58 58 58 58 58 100 58 58 100 
66 58 58 58 100 58 58 63 58 58 58 77 58 52 58 58 58 58 58 58 58 58 58 11 58 58 27 58 57 58 71 58 16 55 58 10 58 58 43 48 0 58 96 58 58 82 58 58 96 79 
70 38 58 74 58 62 58 62 58 58 65 58 58 58 51 58 58 58 58 58 58 58 35 58 58 58 78 58 67 58 58 58 58 78 58 58 58 58 80 58 58 0 58 58 58 58 58 58 58 58 
55 58 58 58 76 58 58 58 58 58 58 58 29 58 58 58 58 58 58 58 58 58 58 58 76 58 58 58 58 58 96 58 58 58 58 58 58 58 58 58 96 58 0 58 58 58 58 58 58 3 
20 58 58 48 58 21 58 58 58 58 58 58 58 58 58 71 37 58 21 93 89 74 58 62 58 58 21 58 58 46 58 58 58 46 58 58 36 49 58 58 58 58 58 0 58 58 58 93 35 32 
80 64 58 58 58 58 58 58 58 58 58 58 58 58 49 58 58 58 64 58 58 58 64 58 59 58 58 58 58 57 58 58 58 58 58 58 58 58 58 58 58 58 58 58 0 58 58 9 58 58 
70 58 58 58 58 58 58 16 58 58 58 58 53 54 58 81 58 58 21 58 69 58 8 58 58 58 58 58 58 19 58 58 58 58 58 58 88 62 58 58 82 58 58 58 58 0 58 58 58 58 
50 58 58 58 58 58 58 58 58 58 58 58 58 58 58 58 58 58 58 58 58 58 58 58 58 58 58 88 58 58 58 58 65 58 58 58 58 58 58 100 58 58 58 58 58 58 0 58 58 58 
3 58 26 58 72 59 9 58 58 58 58 58 58 58 58 8 67 58 58 24 58 58 44 58 58 58 17 58 58 58 58 24 58 58 58 31 58 62 72 58 58 58 58 93 9 58 58 0 58 58 
74 58 58 58 58 37 58 26 58 58 58 58 58 58 52 58 58 58 58 58 58 67 1 31 58 58 58 58 58 58 58 58 19 58 67 58 58 54 58 58 96 58 58 35 58 58 58 58 0 58 
61 58 58 58 58 58 58 72 58 58 58 58 58 58 58 79 58 58 58 58 72 58 58 73 58 58 58 58 58 58 58 58 18 58 58 58 51 23 58 100 79 58 3 32 58 58 58 58 58 0 
